\ LP format - for model browsing. Use MPS format to capture full model detail.
Maximize
obj:   x[1] + x[2] + x[3] + x[4] + x[5] + x[6]
Subject To
 edge1: x[1] + x[2] <= 1
 edge2: x[1] + x[3] <= 1
 edge3: x[1] + x[4] <= 1
 edge4: x[1] + x[5] <= 1
 edge5: x[1] + x[6] <= 1
 edge6: x[2] + x[3] <= 1
 edge7: x[2] + x[6] <= 1
 edge8: x[3] + x[4] <= 1
 edge9: x[4] + x[5] <= 1
 edge10: x[5] + x[6] <= 1
Bounds
Binaries
 x[1] x[2] x[3] x[4] x[5] x[6]
End
